<number of tasks>
50

<cycle time>
1000

<order strength>
0.202


<task times>
1 172
2 81
3 76
4 195
5 98
6 69
7 99
8 222
9 69
10 168
11 146
12 118
13 223
14 80
15 92
16 189
17 87
18 93
19 187
20 123
21 28
22 276
23 123
24 62
25 68
26 147
27 27
28 107
29 212
30 73
31 216
32 282
33 107
34 119
35 55
36 172
37 155
38 120
39 70
40 215
41 300
42 104
43 94
44 93
45 120
46 99
47 201
48 77
49 122
50 163

<precedence relations>
1,5
2,6
2,9
3,7
3,8
4,10
5,12
6,13
7,14
8,11
8,15
9,16
9,44
10,15
10,50
11,17
12,18
13,21
14,19
15,20
15,22
16,23
17,25
18,27
19,24
19,26
19,31
19,32
20,28
22,29
23,30
24,33
25,37
26,34
27,37
28,35
29,36
30,38
33,40
34,39
35,41
36,42
37,43
37,44
39,46
40,45
41,47
42,46
43,48
43,49
44,50

<end>
